10  485
1   6   21    38    43    12    20    28    
2   0
3   6   7    2    26    49    5    45    
4   7   41    23    46    19    32    50    35    
5   4   31    11    40    30    
6   8   47    16    33    8    3    39    24    9    
7   7   6    1    42    27    29    10    14    
8   0
9   6   17    18    22    37    44    25    
10   6   13    36    48    4    15    34    

